c nIsolatedPIs 48
c maxPI 80
p cnf 280 601
c gate 81 37 77 0
37 -81 0
77 -81 0
-37 -77 81 0
c gate 82 38 78 0
38 -82 0
78 -82 0
-38 -78 82 0
c gate 83 -81 -82 0
-81 -83 0
-82 -83 0
81 82 83 0
c gate 84 33 73 0
33 -84 0
73 -84 0
-33 -73 84 0
c gate 85 -32 -72 0
-32 -85 0
-72 -85 0
32 72 85 0
c gate 86 32 72 0
32 -86 0
72 -86 0
-32 -72 86 0
c gate 87 31 71 0
31 -87 0
71 -87 0
-31 -71 87 0
c gate 88 -86 -87 0
-86 -88 0
-87 -88 0
86 87 88 0
c gate 89 -31 -71 0
-31 -89 0
-71 -89 0
31 71 89 0
c gate 90 -30 -70 0
-30 -90 0
-70 -90 0
30 70 90 0
c gate 91 -89 -90 0
-89 -91 0
-90 -91 0
89 90 91 0
c gate 92 30 70 0
30 -92 0
70 -92 0
-30 -70 92 0
c gate 93 29 69 0
29 -93 0
69 -93 0
-29 -69 93 0
c gate 94 -92 -93 0
-92 -94 0
-93 -94 0
92 93 94 0
c gate 95 -29 -69 0
-29 -95 0
-69 -95 0
29 69 95 0
c gate 96 28 68 0
28 -96 0
68 -96 0
-28 -68 96 0
c gate 97 -28 -68 0
-28 -97 0
-68 -97 0
28 68 97 0
c gate 98 27 -97 0
27 -98 0
-97 -98 0
-27 97 98 0
c gate 99 67 98 0
67 -99 0
98 -99 0
-67 -98 99 0
c gate 100 -96 -99 0
-96 -100 0
-99 -100 0
96 99 100 0
c gate 101 67 -97 0
67 -101 0
-97 -101 0
-67 97 101 0
c gate 102 -98 -101 0
-98 -102 0
-101 -102 0
98 101 102 0
c gate 103 25 65 0
25 -103 0
65 -103 0
-25 -65 103 0
c gate 104 26 66 0
26 -104 0
66 -104 0
-26 -66 104 0
c gate 105 -103 -104 0
-103 -105 0
-104 -105 0
103 104 105 0
c gate 106 -26 -66 0
-26 -106 0
-66 -106 0
26 66 106 0
c gate 107 -105 -106 0
-105 -107 0
-106 -107 0
105 106 107 0
c gate 108 -102 107 0
-102 -108 0
107 -108 0
102 -107 108 0
c gate 109 100 -108 0
100 -109 0
-108 -109 0
-100 108 109 0
c gate 110 -95 -109 0
-95 -110 0
-109 -110 0
95 109 110 0
c gate 111 94 -110 0
94 -111 0
-110 -111 0
-94 110 111 0
c gate 112 91 -111 0
91 -112 0
-111 -112 0
-91 111 112 0
c gate 113 88 -112 0
88 -113 0
-112 -113 0
-88 112 113 0
c gate 114 -85 -113 0
-85 -114 0
-113 -114 0
85 113 114 0
c gate 115 -84 -114 0
-84 -115 0
-114 -115 0
84 114 115 0
c gate 116 -34 -74 0
-34 -116 0
-74 -116 0
34 74 116 0
c gate 117 -33 -73 0
-33 -117 0
-73 -117 0
33 73 117 0
c gate 118 -116 -117 0
-116 -118 0
-117 -118 0
116 117 118 0
c gate 119 -115 118 0
-115 -119 0
118 -119 0
115 -118 119 0
c gate 120 34 74 0
34 -120 0
74 -120 0
-34 -74 120 0
c gate 121 36 76 0
36 -121 0
76 -121 0
-36 -76 121 0
c gate 122 35 75 0
35 -122 0
75 -122 0
-35 -75 122 0
c gate 123 -121 -122 0
-121 -123 0
-122 -123 0
121 122 123 0
c gate 124 -120 123 0
-120 -124 0
123 -124 0
120 -123 124 0
c gate 125 -119 124 0
-119 -125 0
124 -125 0
119 -124 125 0
c gate 126 -36 -76 0
-36 -126 0
-76 -126 0
36 76 126 0
c gate 127 -35 -75 0
-35 -127 0
-75 -127 0
35 75 127 0
c gate 128 -126 -127 0
-126 -128 0
-127 -128 0
126 127 128 0
c gate 129 -121 -128 0
-121 -129 0
-128 -129 0
121 128 129 0
c gate 130 -37 -77 0
-37 -130 0
-77 -130 0
37 77 130 0
c gate 131 -81 -130 0
-81 -131 0
-130 -131 0
81 130 131 0
c gate 132 -129 131 0
-129 -132 0
131 -132 0
129 -131 132 0
c gate 133 -125 132 0
-125 -133 0
132 -133 0
125 -132 133 0
c gate 134 83 -133 0
83 -134 0
-133 -134 0
-83 133 134 0
c gate 135 1 41 0
1 -135 0
41 -135 0
-1 -41 135 0
c gate 136 2 135 0
2 -136 0
135 -136 0
-2 -135 136 0
c gate 137 -42 -136 0
-42 -137 0
-136 -137 0
42 136 137 0
c gate 138 -2 -135 0
-2 -138 0
-135 -138 0
2 135 138 0
c gate 139 -3 -43 0
-3 -139 0
-43 -139 0
3 43 139 0
c gate 140 -138 -139 0
-138 -140 0
-139 -140 0
138 139 140 0
c gate 141 -137 140 0
-137 -141 0
140 -141 0
137 -140 141 0
c gate 142 4 44 0
4 -142 0
44 -142 0
-4 -44 142 0
c gate 143 3 43 0
3 -143 0
43 -143 0
-3 -43 143 0
c gate 144 -142 -143 0
-142 -144 0
-143 -144 0
142 143 144 0
c gate 145 -141 144 0
-141 -145 0
144 -145 0
141 -144 145 0
c gate 146 -4 -44 0
-4 -146 0
-44 -146 0
4 44 146 0
c gate 147 -5 -45 0
-5 -147 0
-45 -147 0
5 45 147 0
c gate 148 -146 -147 0
-146 -148 0
-147 -148 0
146 147 148 0
c gate 149 -145 148 0
-145 -149 0
148 -149 0
145 -148 149 0
c gate 150 6 46 0
6 -150 0
46 -150 0
-6 -46 150 0
c gate 151 5 45 0
5 -151 0
45 -151 0
-5 -45 151 0
c gate 152 -150 -151 0
-150 -152 0
-151 -152 0
150 151 152 0
c gate 153 -149 152 0
-149 -153 0
152 -153 0
149 -152 153 0
c gate 154 -7 -47 0
-7 -154 0
-47 -154 0
7 47 154 0
c gate 155 -6 -46 0
-6 -155 0
-46 -155 0
6 46 155 0
c gate 156 -154 -155 0
-154 -156 0
-155 -156 0
154 155 156 0
c gate 157 -153 156 0
-153 -157 0
156 -157 0
153 -156 157 0
c gate 158 7 47 0
7 -158 0
47 -158 0
-7 -47 158 0
c gate 159 8 48 0
8 -159 0
48 -159 0
-8 -48 159 0
c gate 160 -158 -159 0
-158 -160 0
-159 -160 0
158 159 160 0
c gate 161 -157 160 0
-157 -161 0
160 -161 0
157 -160 161 0
c gate 162 -12 -52 0
-12 -162 0
-52 -162 0
12 52 162 0
c gate 163 11 -162 0
11 -163 0
-162 -163 0
-11 162 163 0
c gate 164 51 -162 0
51 -164 0
-162 -164 0
-51 162 164 0
c gate 165 -163 -164 0
-163 -165 0
-164 -165 0
163 164 165 0
c gate 166 -16 -56 0
-16 -166 0
-56 -166 0
16 56 166 0
c gate 167 -13 -53 0
-13 -167 0
-53 -167 0
13 53 167 0
c gate 168 -8 -48 0
-8 -168 0
-48 -168 0
8 48 168 0
c gate 169 -167 -168 0
-167 -169 0
-168 -169 0
167 168 169 0
c gate 170 -166 169 0
-166 -170 0
169 -170 0
166 -169 170 0
c gate 171 14 54 0
14 -171 0
54 -171 0
-14 -54 171 0
c gate 172 13 53 0
13 -172 0
53 -172 0
-13 -53 172 0
c gate 173 -171 -172 0
-171 -173 0
-172 -173 0
171 172 173 0
c gate 174 -10 -50 0
-10 -174 0
-50 -174 0
10 50 174 0
c gate 175 -9 -49 0
-9 -175 0
-49 -175 0
9 49 175 0
c gate 176 -174 -175 0
-174 -176 0
-175 -176 0
174 175 176 0
c gate 177 173 176 0
173 -177 0
176 -177 0
-173 -176 177 0
c gate 178 170 177 0
170 -178 0
177 -178 0
-170 -177 178 0
c gate 179 -165 178 0
-165 -179 0
178 -179 0
165 -178 179 0
c gate 180 12 52 0
12 -180 0
52 -180 0
-12 -52 180 0
c gate 181 51 163 0
51 -181 0
163 -181 0
-51 -163 181 0
c gate 182 -180 -181 0
-180 -182 0
-181 -182 0
180 181 182 0
c gate 183 -15 -55 0
-15 -183 0
-55 -183 0
15 55 183 0
c gate 184 -14 -54 0
-14 -184 0
-54 -184 0
14 54 184 0
c gate 185 -183 -184 0
-183 -185 0
-184 -185 0
183 184 185 0
c gate 186 16 56 0
16 -186 0
56 -186 0
-16 -56 186 0
c gate 187 15 55 0
15 -187 0
55 -187 0
-15 -55 187 0
c gate 188 -186 -187 0
-186 -188 0
-187 -188 0
186 187 188 0
c gate 189 9 49 0
9 -189 0
49 -189 0
-9 -49 189 0
c gate 190 10 50 0
10 -190 0
50 -190 0
-10 -50 190 0
c gate 191 -189 -190 0
-189 -191 0
-190 -191 0
189 190 191 0
c gate 192 188 191 0
188 -192 0
191 -192 0
-188 -191 192 0
c gate 193 185 192 0
185 -193 0
192 -193 0
-185 -192 193 0
c gate 194 182 193 0
182 -194 0
193 -194 0
-182 -193 194 0
c gate 195 179 194 0
179 -195 0
194 -195 0
-179 -194 195 0
c gate 196 -161 195 0
-161 -196 0
195 -196 0
161 -195 196 0
c gate 197 -174 -191 0
-174 -197 0
-191 -197 0
174 191 197 0
c gate 198 -165 197 0
-165 -198 0
197 -198 0
165 -197 198 0
c gate 199 182 -198 0
182 -199 0
-198 -199 0
-182 198 199 0
c gate 200 -167 -199 0
-167 -200 0
-199 -200 0
167 199 200 0
c gate 201 173 -200 0
173 -201 0
-200 -201 0
-173 200 201 0
c gate 202 185 -201 0
185 -202 0
-201 -202 0
-185 201 202 0
c gate 203 188 -202 0
188 -203 0
-202 -203 0
-188 202 203 0
c gate 204 -166 -203 0
-166 -204 0
-203 -204 0
166 203 204 0
c gate 205 -196 -204 0
-196 -205 0
-204 -205 0
196 204 205 0
c gate 206 -25 -65 0
-25 -206 0
-65 -206 0
25 65 206 0
c gate 207 -95 -106 0
-95 -207 0
-106 -207 0
95 106 207 0
c gate 208 -206 207 0
-206 -208 0
207 -208 0
206 -207 208 0
c gate 209 -24 -64 0
-24 -209 0
-64 -209 0
24 64 209 0
c gate 210 -85 -209 0
-85 -210 0
-209 -210 0
85 209 210 0
c gate 211 88 210 0
88 -211 0
210 -211 0
-88 -210 211 0
c gate 212 208 211 0
208 -212 0
211 -212 0
-208 -211 212 0
c gate 213 -102 212 0
-102 -213 0
212 -213 0
102 -212 213 0
c gate 214 94 105 0
94 -214 0
105 -214 0
-94 -105 214 0
c gate 215 91 214 0
91 -215 0
214 -215 0
-91 -214 215 0
c gate 216 100 215 0
100 -216 0
215 -216 0
-100 -215 216 0
c gate 217 213 216 0
213 -217 0
216 -217 0
-213 -216 217 0
c gate 218 -18 -58 0
-18 -218 0
-58 -218 0
18 58 218 0
c gate 219 -19 -59 0
-19 -219 0
-59 -219 0
19 59 219 0
c gate 220 -218 -219 0
-218 -220 0
-219 -220 0
218 219 220 0
c gate 221 17 57 0
17 -221 0
57 -221 0
-17 -57 221 0
c gate 222 18 58 0
18 -222 0
58 -222 0
-18 -58 222 0
c gate 223 -221 -222 0
-221 -223 0
-222 -223 0
221 222 223 0
c gate 224 220 -223 0
220 -224 0
-223 -224 0
-220 223 224 0
c gate 225 20 60 0
20 -225 0
60 -225 0
-20 -60 225 0
c gate 226 19 59 0
19 -226 0
59 -226 0
-19 -59 226 0
c gate 227 -225 -226 0
-225 -227 0
-226 -227 0
225 226 227 0
c gate 228 -224 227 0
-224 -228 0
227 -228 0
224 -227 228 0
c gate 229 -20 -60 0
-20 -229 0
-60 -229 0
20 60 229 0
c gate 230 -17 -57 0
-17 -230 0
-57 -230 0
17 57 230 0
c gate 231 -229 -230 0
-229 -231 0
-230 -231 0
229 230 231 0
c gate 232 220 231 0
220 -232 0
231 -232 0
-220 -231 232 0
c gate 233 228 232 0
228 -233 0
232 -233 0
-228 -232 233 0
c gate 234 23 63 0
23 -234 0
63 -234 0
-23 -63 234 0
c gate 235 24 64 0
24 -235 0
64 -235 0
-24 -64 235 0
c gate 236 -234 -235 0
-234 -236 0
-235 -236 0
234 235 236 0
c gate 237 -21 -61 0
-21 -237 0
-61 -237 0
21 61 237 0
c gate 238 236 -237 0
236 -238 0
-237 -238 0
-236 237 238 0
c gate 239 -22 -62 0
-22 -239 0
-62 -239 0
22 62 239 0
c gate 240 -23 -63 0
-23 -240 0
-63 -240 0
23 63 240 0
c gate 241 -239 -240 0
-239 -241 0
-240 -241 0
239 240 241 0
c gate 242 22 62 0
22 -242 0
62 -242 0
-22 -62 242 0
c gate 243 21 61 0
21 -243 0
61 -243 0
-21 -61 243 0
c gate 244 -242 -243 0
-242 -244 0
-243 -244 0
242 243 244 0
c gate 245 241 244 0
241 -245 0
244 -245 0
-241 -244 245 0
c gate 246 238 245 0
238 -246 0
245 -246 0
-238 -245 246 0
c gate 247 233 246 0
233 -247 0
246 -247 0
-233 -246 247 0
c gate 248 217 247 0
217 -248 0
247 -248 0
-217 -247 248 0
c gate 249 -205 248 0
-205 -249 0
248 -249 0
205 -248 249 0
c gate 250 -229 -237 0
-229 -250 0
-237 -250 0
229 237 250 0
c gate 251 -228 250 0
-228 -251 0
250 -251 0
228 -250 251 0
c gate 252 244 -251 0
244 -252 0
-251 -252 0
-244 251 252 0
c gate 253 241 -252 0
241 -253 0
-252 -253 0
-241 252 253 0
c gate 254 236 -253 0
236 -254 0
-253 -254 0
-236 253 254 0
c gate 255 217 -254 0
217 -255 0
-254 -255 0
-217 254 255 0
c gate 256 -114 -255 0
-114 -256 0
-255 -256 0
114 255 256 0
c gate 257 -249 256 0
-249 -257 0
256 -257 0
249 -256 257 0
c gate 258 -117 -257 0
-117 -258 0
-257 -258 0
117 257 258 0
c gate 259 -84 -120 0
-84 -259 0
-120 -259 0
84 120 259 0
c gate 260 -258 259 0
-258 -260 0
259 -260 0
258 -259 260 0
c gate 261 -116 -127 0
-116 -261 0
-127 -261 0
116 127 261 0
c gate 262 -260 261 0
-260 -262 0
261 -262 0
260 -261 262 0
c gate 263 123 -262 0
123 -263 0
-262 -263 0
-123 262 263 0
c gate 264 40 80 0
40 -264 0
80 -264 0
-40 -80 264 0
c gate 265 -40 -80 0
-40 -265 0
-80 -265 0
40 80 265 0
c gate 266 39 79 0
39 -266 0
79 -266 0
-39 -79 266 0
c gate 267 -38 -78 0
-38 -267 0
-78 -267 0
38 78 267 0
c gate 268 -39 -79 0
-39 -268 0
-79 -268 0
39 79 268 0
c gate 269 -266 -268 0
-266 -269 0
-268 -269 0
266 268 269 0
c gate 270 -267 269 0
-267 -270 0
269 -270 0
267 -269 270 0
c gate 271 -83 270 0
-83 -271 0
270 -271 0
83 -270 271 0
c gate 272 -266 -271 0
-266 -272 0
-271 -272 0
266 271 272 0
c gate 273 -265 -272 0
-265 -273 0
-272 -273 0
265 272 273 0
c gate 274 -264 -273 0
-264 -274 0
-273 -274 0
264 273 274 0
c gate 275 -126 -130 0
-126 -275 0
-130 -275 0
126 130 275 0
c gate 276 -265 275 0
-265 -276 0
275 -276 0
265 -275 276 0
c gate 277 270 276 0
270 -277 0
276 -277 0
-270 -276 277 0
c gate 278 274 277 0
274 -278 0
277 -278 0
-274 -277 278 0
c gate 279 -263 278 0
-263 -279 0
278 -279 0
263 -278 279 0
c gate 280 -134 279 0
-134 -280 0
279 -280 0
134 -279 280 0
c PO
280 0
